Route #1:
Route #2: 14 29 5 20 27
Route #3: 21 31 17 19
Route #4: 1 12 16 30
Route #5: 6 4 2 3 23 26
Route #6: 24
Route #7: 7 13
Route #8: 18 11 28 8
Route #9: 25 10 15 22 9

Cost: 1226.4665081171775
